variable	out_freq equal REPLACE_FREQ
variable	out_freq2 equal REPLACE_FREQ

timestep	REPLACE_TSTEP

neigh_modify    delay 7 every 1

include		in.deepmd

thermo          ${out_freq}
thermo_style 	custom step temp pe etotal epair emol press lx ly lz vol pxx pyy pzz pxy pxz pyz cella cellb cellc cellalpha cellbeta cellgamma


thermo_modify   flush yes
restart 	${out_freq} restart.lmp.${pid} restart2.lmp.${pid}

