echo both
log log.lammps
#include		in.partitions
include		in.temp
include		in.pressure
include		in.seed
units           metal
atom_style	full
include		in.box
include 	in.setup

include         in.dump

fix             2 all nph aniso ${pressure} ${pressure} ${pressureDamp}
fix             3 all temp/csvr ${temperature} ${temperature} ${tempDamp} ${seed}
velocity 	all create ${temperature} ${seed} dist gaussian

run             1000000

unfix		3
unfix		2

write_data	data.final

write_restart   restart.lmp
