echo both

units           metal
atom_style	full
read_data	water.data

neigh_modify    delay 7 every 1
fix 1 all plumed plumedfile plumed.dat outfile plumed.out

rerun dump.water.0 dump x y z # Nskip 1