units           metal
atom_style	full
box tilt large
read_data	../ice.data
write_restart   restart.lmp.0
clear 
include procedure.lmp
