echo both

units           metal
atom_style	full
read_data	water.data


fix 1 all plumed plumedfile plumed.dat outfile plumed.out

rerun dump.water.0 dump x y z