echo both
units           real
atom_style      full
processors * * * map xyz

read_data       ../water.data
include         in.mbpol

thermo 1



run 0
include in.dump
rerun            ../water.dump.0 dump  x y z box yes