units		metal
atom_style	full

pair_style 	deepmd ../../../../graph.pb
read_data	water.data
pair_coeff  * * 0 0


neighbor        2.0 bin
neigh_modify    every 40 delay 0 check no

timestep	0.00025

fix 1 all ipi h2o-pimd 32345 unix


run		100000000

