echo both
include		in.partitions
include		in.temp
include		in.pressure
include		in.seed
units		metal
atom_style	full
read_restart    restart.lmp.0
include 	in.setup

include         in.dump

REPLACE_TIMEOUT


fix             2 all nph REPLACE_BAROSTAT ${pressure} ${pressure} ${pressureDamp}
fix             3 all temp/csvr ${temperature} ${temperature} ${tempDamp} ${seed}

run             REPLACE_NUM_STEPS upto

unfix		3
unfix		2


write_data	data.final.${pid}

write_restart   restart.lmp.${pid}
