echo both

include		../in.partitions
include		../in.temp
include		../in.pressure
include		../in.seed
units           metal
atom_style	full
box tilt large
read_restart	restart.lmp.0 
#read_data 	ice_final_scaled.data

include 	in.setup

include         ../in.dump


log 		log.liquid
fix             2 all nph ${direction} ${pressure} ${pressure} ${pressureDamp} flip no

if "$(step) < ${nsteps_anneal_up_upto} " then &
   "fix             3 all temp/csvr ${temperature} 450  ${tempDamp} ${seed}"&
   "run             ${nsteps_anneal_up_upto} upto"&
   "unfix 3"

if "$(step) >= ${nsteps_anneal_up_upto} && $(step) < ${nsteps_melt_upto} " then &
   "fix             3 all temp/csvr  450 450  ${tempDamp} ${seed}"&	      
   "run             ${nsteps_melt_upto} upto"&
   "unfix 3" 

if "$(step) < ${nsteps_anneal_down_upto} && $(step) >= ${nsteps_melt_upto} " then &
   "fix             3 all temp/csvr  450 ${temperature}  ${tempDamp} ${seed}"&
   "run             ${nsteps_anneal_down_upto} upto"&
   "unfix 3"

if "$(step) < ${nsteps_equil_liquid_upto} &&  $(step) >= ${nsteps_anneal_down_upto} " then &
   "fix             3 all temp/csvr  ${temperature} ${temperature}  ${tempDamp} ${seed}"&
   "run             ${nsteps_equil_liquid_upto} upto"&
   "unfix 3"

if "$(step) < ${nsteps_sample_liquid_upto}  && $(step) >= ${nsteps_anneal_down_upto} " then &
   "dump            dumpLiq all dcd ${out_freq2} dump_liq.dcd" &
   "dump            dumpLiq2 all atom ${out_freq2} dump_liq.lammpstrj" &
   "fix             3 all temp/csvr  ${temperature} ${temperature}  ${tempDamp} ${seed}" &
   "run             ${nsteps_sample_liquid_upto} upto" &
   "unfix 3"

write_restart	restart.lmp.0
write_data 	liquid_final.data