variable	out_freq equal 1000
variable	out_freq2 equal 10000
variable	out_freq3 equal 1000

timestep        0.0005

neigh_modify    delay 7 every 1

include         in.deepmd

thermo          ${out_freq}
thermo_style 	custom step temp pe etotal epair emol press lx ly lz vol pxx pyy pzz pxy pxz pyz enthalpy

restart 	${out_freq3} restart.lmp restart2.lmp

